1600 3200
1 2 1
1 41 3
2 3 5
2 42 2
3 4 4
3 43 2
4 5 3
4 44 5
5 6 4
5 45 4
6 7 2
6 46 5
7 8 1
7 47 4
8 9 1
8 48 2
9 10 1
9 49 2
10 11 5
10 50 1
11 12 1
11 51 4
12 13 3
12 52 1
13 14 2
13 53 2
14 15 4
14 54 2
15 16 2
15 55 4
16 17 2
16 56 2
17 18 3
17 57 3
18 19 3
18 58 5
19 20 1
19 59 4
20 21 4
20 60 1
21 22 4
21 61 1
22 23 3
22 62 3
23 24 3
23 63 5
24 25 3
24 64 5
25 26 2
25 65 3
26 27 4
26 66 5
27 28 2
27 67 3
28 29 1
28 68 1
29 30 5
29 69 3
30 31 5
30 70 4
31 32 4
31 71 2
32 33 2
32 72 3
33 34 4
33 73 2
34 35 1
34 74 2
35 36 5
35 75 1
36 37 4
36 76 5
37 38 4
37 77 4
38 39 4
38 78 5
39 40 1
39 79 5
40 80 2
41 42 3
41 81 1
42 43 2
42 82 5
43 44 5
43 83 4
44 45 2
44 84 2
45 46 1
45 85 2
46 47 1
46 86 3
47 48 4
47 87 5
48 49 4
48 88 2
49 50 1
49 89 1
50 51 3
50 90 1
51 52 2
51 91 3
52 53 2
52 92 1
53 54 3
53 93 3
54 55 5
54 94 5
55 56 1
55 95 2
56 57 2
56 96 4
57 58 4
57 97 4
58 59 5
58 98 3
59 60 3
59 99 5
60 61 3
60 100 1
61 62 2
61 101 2
62 63 2
62 102 5
63 64 3
63 103 5
64 65 4
64 104 2
65 66 1
65 105 1
66 67 2
66 106 4
67 68 5
67 107 2
68 69 3
68 108 3
69 70 2
69 109 4
70 71 5
70 110 1
71 72 4
71 111 2
72 73 2
72 112 5
73 74 5
73 113 5
74 75 3
74 114 5
75 76 4
75 115 1
76 77 3
76 116 4
77 78 3
77 117 1
78 79 3
78 118 4
79 80 5
79 119 4
80 120 3
81 82 3
81 121 4
82 83 2
82 122 4
83 84 3
83 123 1
84 85 2
84 124 1
85 86 3
85 125 1
86 87 1
86 126 3
87 88 2
87 127 4
88 89 5
88 128 4
89 90 1
89 129 5
90 91 1
90 130 4
91 92 3
91 131 1
92 93 3
92 132 3
93 94 3
93 133 1
94 95 2
94 134 3
95 96 4
95 135 3
96 97 2
96 136 5
97 98 1
97 137 1
98 99 1
98 138 4
99 100 3
99 139 3
100 101 1
100 140 3
101 102 1
101 141 5
102 103 4
102 142 3
103 104 1
103 143 5
104 105 4
104 144 5
105 106 3
105 145 2
106 107 5
106 146 2
107 108 5
107 147 1
108 109 1
108 148 4
109 110 1
109 149 3
110 111 5
110 150 5
111 112 5
111 151 1
112 113 4
112 152 1
113 114 4
113 153 2
114 115 2
114 154 3
115 116 5
115 155 3
116 117 3
116 156 1
117 118 5
117 157 2
118 119 4
118 158 5
119 120 3
119 159 4
120 160 1
121 122 2
121 161 5
122 123 5
122 162 4
123 124 3
123 163 2
124 125 5
124 164 5
125 126 2
125 165 1
126 127 1
126 166 2
127 128 2
127 167 3
128 129 3
128 168 1
129 130 5
129 169 2
130 131 3
130 170 5
131 132 2
131 171 4
132 133 4
132 172 2
133 134 1
133 173 1
134 135 5
134 174 3
135 136 1
135 175 5
136 137 1
136 176 5
137 138 4
137 177 3
138 139 3
138 178 4
139 140 1
139 179 2
140 141 3
140 180 3
141 142 4
141 181 2
142 143 1
142 182 1
143 144 5
143 183 5
144 145 5
144 184 3
145 146 2
145 185 2
146 147 2
146 186 4
147 148 1
147 187 2
148 149 3
148 188 4
149 150 3
149 189 2
150 151 5
150 190 1
151 152 2
151 191 2
152 153 5
152 192 4
153 154 2
153 193 3
154 155 2
154 194 3
155 156 5
155 195 3
156 157 1
156 196 3
157 158 2
157 197 4
158 159 3
158 198 4
159 160 2
159 199 5
160 200 2
161 162 2
161 201 3
162 163 4
162 202 3
163 164 4
163 203 3
164 165 3
164 204 5
165 166 5
165 205 1
166 167 5
166 206 1
167 168 4
167 207 3
168 169 2
168 208 3
169 170 1
169 209 1
170 171 3
170 210 1
171 172 1
171 211 1
172 173 3
172 212 4
173 174 3
173 213 3
174 175 5
174 214 2
175 176 3
175 215 4
176 177 2
176 216 5
177 178 5
177 217 1
178 179 3
178 218 4
179 180 2
179 219 4
180 181 2
180 220 3
181 182 4
181 221 5
182 183 5
182 222 1
183 184 1
183 223 2
184 185 2
184 224 5
185 186 4
185 225 1
186 187 2
186 226 1
187 188 2
187 227 5
188 189 2
188 228 1
189 190 5
189 229 5
190 191 4
190 230 1
191 192 3
191 231 2
192 193 5
192 232 1
193 194 3
193 233 5
194 195 2
194 234 1
195 196 4
195 235 3
196 197 3
196 236 3
197 198 3
197 237 4
198 199 2
198 238 5
199 200 1
199 239 1
200 240 1
201 202 2
201 241 3
202 203 5
202 242 4
203 204 1
203 243 3
204 205 3
204 244 1
205 206 2
205 245 1
206 207 4
206 246 1
207 208 2
207 247 1
208 209 2
208 248 5
209 210 2
209 249 2
210 211 3
210 250 3
211 212 3
211 251 1
212 213 5
212 252 2
213 214 4
213 253 4
214 215 5
214 254 5
215 216 5
215 255 2
216 217 1
216 256 1
217 218 3
217 257 2
218 219 4
218 258 5
219 220 4
219 259 4
220 221 4
220 260 2
221 222 1
221 261 1
222 223 1
222 262 4
223 224 1
223 263 2
224 225 3
224 264 5
225 226 2
225 265 5
226 227 4
226 266 5
227 228 5
227 267 5
228 229 5
228 268 1
229 230 2
229 269 4
230 231 3
230 270 3
231 232 3
231 271 5
232 233 3
232 272 3
233 234 3
233 273 1
234 235 1
234 274 4
235 236 4
235 275 2
236 237 4
236 276 5
237 238 4
237 277 5
238 239 5
238 278 2
239 240 2
239 279 4
240 280 4
241 242 1
241 281 1
242 243 5
242 282 2
243 244 4
243 283 2
244 245 4
244 284 2
245 246 3
245 285 4
246 247 4
246 286 1
247 248 3
247 287 3
248 249 1
248 288 4
249 250 2
249 289 3
250 251 1
250 290 5
251 252 2
251 291 2
252 253 4
252 292 3
253 254 2
253 293 5
254 255 4
254 294 3
255 256 3
255 295 5
256 257 5
256 296 3
257 258 5
257 297 5
258 259 1
258 298 1
259 260 4
259 299 1
260 261 4
260 300 5
261 262 4
261 301 3
262 263 1
262 302 2
263 264 2
263 303 3
264 265 5
264 304 4
265 266 1
265 305 1
266 267 3
266 306 4
267 268 2
267 307 1
268 269 4
268 308 2
269 270 4
269 309 2
270 271 2
270 310 5
271 272 4
271 311 2
272 273 2
272 312 2
273 274 3
273 313 1
274 275 5
274 314 3
275 276 3
275 315 2
276 277 5
276 316 3
277 278 2
277 317 5
278 279 2
278 318 1
279 280 2
279 319 4
280 320 5
281 282 2
281 321 5
282 283 1
282 322 1
283 284 2
283 323 5
284 285 4
284 324 3
285 286 1
285 325 3
286 287 3
286 326 5
287 288 4
287 327 3
288 289 3
288 328 1
289 290 1
289 329 1
290 291 1
290 330 2
291 292 5
291 331 1
292 293 3
292 332 5
293 294 1
293 333 3
294 295 2
294 334 2
295 296 2
295 335 4
296 297 3
296 336 2
297 298 1
297 337 5
298 299 3
298 338 1
299 300 1
299 339 2
300 301 5
300 340 3
301 302 2
301 341 1
302 303 4
302 342 2
303 304 4
303 343 4
304 305 1
304 344 4
305 306 2
305 345 5
306 307 4
306 346 4
307 308 2
307 347 5
308 309 5
308 348 4
309 310 2
309 349 5
310 311 5
310 350 5
311 312 3
311 351 2
312 313 1
312 352 3
313 314 4
313 353 3
314 315 4
314 354 4
315 316 2
315 355 2
316 317 2
316 356 4
317 318 1
317 357 3
318 319 3
318 358 3
319 320 5
319 359 3
320 360 1
321 322 1
321 361 2
322 323 5
322 362 3
323 324 1
323 363 5
324 325 4
324 364 1
325 326 1
325 365 3
326 327 1
326 366 1
327 328 5
327 367 3
328 329 1
328 368 1
329 330 4
329 369 1
330 331 2
330 370 3
331 332 4
331 371 5
332 333 3
332 372 3
333 334 1
333 373 4
334 335 2
334 374 5
335 336 2
335 375 1
336 337 5
336 376 1
337 338 4
337 377 3
338 339 3
338 378 1
339 340 5
339 379 4
340 341 3
340 380 4
341 342 3
341 381 1
342 343 1
342 382 5
343 344 2
343 383 5
344 345 2
344 384 1
345 346 3
345 385 4
346 347 3
346 386 1
347 348 5
347 387 4
348 349 4
348 388 5
349 350 5
349 389 5
350 351 1
350 390 5
351 352 4
351 391 2
352 353 2
352 392 1
353 354 2
353 393 1
354 355 3
354 394 5
355 356 4
355 395 1
356 357 4
356 396 3
357 358 3
357 397 1
358 359 5
358 398 2
359 360 3
359 399 4
360 400 1
361 362 1
361 401 4
362 363 2
362 402 1
363 364 3
363 403 1
364 365 3
364 404 3
365 366 4
365 405 5
366 367 5
366 406 3
367 368 2
367 407 1
368 369 1
368 408 3
369 370 2
369 409 4
370 371 4
370 410 1
371 372 3
371 411 3
372 373 4
372 412 2
373 374 4
373 413 2
374 375 1
374 414 2
375 376 1
375 415 2
376 377 1
376 416 5
377 378 2
377 417 4
378 379 1
378 418 4
379 380 2
379 419 1
380 381 5
380 420 1
381 382 4
381 421 4
382 383 1
382 422 1
383 384 4
383 423 5
384 385 2
384 424 2
385 386 2
385 425 2
386 387 1
386 426 1
387 388 4
387 427 3
388 389 3
388 428 3
389 390 3
389 429 5
390 391 5
390 430 2
391 392 1
391 431 3
392 393 1
392 432 2
393 394 2
393 433 1
394 395 5
394 434 5
395 396 5
395 435 3
396 397 1
396 436 3
397 398 4
397 437 2
398 399 2
398 438 5
399 400 3
399 439 1
400 440 2
401 402 5
401 441 5
402 403 4
402 442 4
403 404 3
403 443 3
404 405 2
404 444 4
405 406 4
405 445 3
406 407 1
406 446 4
407 408 1
407 447 3
408 409 4
408 448 3
409 410 3
409 449 4
410 411 4
410 450 1
411 412 3
411 451 5
412 413 5
412 452 1
413 414 3
413 453 3
414 415 5
414 454 3
415 416 1
415 455 2
416 417 4
416 456 1
417 418 1
417 457 2
418 419 1
418 458 4
419 420 4
419 459 2
420 421 4
420 460 1
421 422 1
421 461 3
422 423 1
422 462 4
423 424 2
423 463 5
424 425 5
424 464 1
425 426 3
425 465 1
426 427 3
426 466 5
427 428 1
427 467 1
428 429 4
428 468 2
429 430 2
429 469 3
430 431 1
430 470 2
431 432 4
431 471 2
432 433 2
432 472 5
433 434 1
433 473 2
434 435 2
434 474 2
435 436 1
435 475 5
436 437 1
436 476 3
437 438 3
437 477 2
438 439 4
438 478 2
439 440 5
439 479 5
440 480 1
441 442 5
441 481 5
442 443 5
442 482 1
443 444 4
443 483 4
444 445 5
444 484 3
445 446 5
445 485 5
446 447 5
446 486 2
447 448 3
447 487 5
448 449 5
448 488 4
449 450 2
449 489 1
450 451 2
450 490 3
451 452 5
451 491 2
452 453 5
452 492 2
453 454 5
453 493 4
454 455 5
454 494 2
455 456 5
455 495 1
456 457 2
456 496 5
457 458 1
457 497 3
458 459 3
458 498 3
459 460 3
459 499 4
460 461 2
460 500 3
461 462 2
461 501 1
462 463 2
462 502 5
463 464 5
463 503 4
464 465 5
464 504 3
465 466 1
465 505 3
466 467 3
466 506 1
467 468 1
467 507 1
468 469 3
468 508 1
469 470 5
469 509 2
470 471 1
470 510 1
471 472 1
471 511 1
472 473 1
472 512 5
473 474 2
473 513 3
474 475 5
474 514 4
475 476 4
475 515 4
476 477 4
476 516 3
477 478 5
477 517 2
478 479 1
478 518 4
479 480 2
479 519 1
480 520 5
481 482 2
481 521 1
482 483 5
482 522 1
483 484 2
483 523 5
484 485 5
484 524 4
485 486 3
485 525 5
486 487 1
486 526 4
487 488 4
487 527 1
488 489 5
488 528 1
489 490 5
489 529 4
490 491 4
490 530 3
491 492 2
491 531 2
492 493 4
492 532 4
493 494 1
493 533 3
494 495 2
494 534 3
495 496 3
495 535 1
496 497 2
496 536 1
497 498 1
497 537 4
498 499 3
498 538 1
499 500 2
499 539 5
500 501 4
500 540 4
501 502 2
501 541 5
502 503 3
502 542 5
503 504 2
503 543 3
504 505 2
504 544 1
505 506 2
505 545 4
506 507 1
506 546 2
507 508 2
507 547 1
508 509 2
508 548 4
509 510 4
509 549 5
510 511 2
510 550 3
511 512 1
511 551 5
512 513 5
512 552 2
513 514 2
513 553 1
514 515 5
514 554 4
515 516 3
515 555 1
516 517 4
516 556 4
517 518 3
517 557 2
518 519 4
518 558 2
519 520 2
519 559 4
520 560 2
521 522 3
521 561 5
522 523 2
522 562 4
523 524 5
523 563 4
524 525 4
524 564 1
525 526 1
525 565 5
526 527 1
526 566 2
527 528 4
527 567 2
528 529 4
528 568 4
529 530 5
529 569 1
530 531 4
530 570 3
531 532 4
531 571 4
532 533 3
532 572 4
533 534 4
533 573 3
534 535 4
534 574 2
535 536 5
535 575 3
536 537 1
536 576 4
537 538 2
537 577 3
538 539 3
538 578 4
539 540 2
539 579 3
540 541 2
540 580 4
541 542 2
541 581 1
542 543 2
542 582 2
543 544 4
543 583 5
544 545 5
544 584 3
545 546 5
545 585 2
546 547 5
546 586 2
547 548 4
547 587 3
548 549 1
548 588 2
549 550 5
549 589 3
550 551 4
550 590 4
551 552 4
551 591 1
552 553 2
552 592 3
553 554 2
553 593 2
554 555 5
554 594 4
555 556 3
555 595 3
556 557 3
556 596 5
557 558 2
557 597 1
558 559 5
558 598 4
559 560 3
559 599 2
560 600 4
561 562 1
561 601 2
562 563 3
562 602 4
563 564 5
563 603 2
564 565 1
564 604 3
565 566 4
565 605 2
566 567 1
566 606 2
567 568 1
567 607 5
568 569 1
568 608 1
569 570 4
569 609 5
570 571 5
570 610 3
571 572 4
571 611 2
572 573 1
572 612 4
573 574 3
573 613 4
574 575 2
574 614 3
575 576 2
575 615 5
576 577 2
576 616 1
577 578 3
577 617 3
578 579 5
578 618 5
579 580 4
579 619 3
580 581 3
580 620 5
581 582 2
581 621 4
582 583 2
582 622 3
583 584 4
583 623 4
584 585 1
584 624 4
585 586 1
585 625 2
586 587 4
586 626 1
587 588 3
587 627 3
588 589 4
588 628 1
589 590 4
589 629 3
590 591 3
590 630 4
591 592 3
591 631 4
592 593 4
592 632 1
593 594 1
593 633 4
594 595 5
594 634 1
595 596 4
595 635 1
596 597 4
596 636 2
597 598 1
597 637 2
598 599 2
598 638 1
599 600 3
599 639 2
600 640 1
601 602 2
601 641 4
602 603 4
602 642 3
603 604 5
603 643 5
604 605 4
604 644 4
605 606 2
605 645 2
606 607 5
606 646 3
607 608 3
607 647 5
608 609 1
608 648 4
609 610 2
609 649 2
610 611 5
610 650 2
611 612 2
611 651 5
612 613 1
612 652 2
613 614 1
613 653 1
614 615 2
614 654 3
615 616 3
615 655 1
616 617 1
616 656 4
617 618 1
617 657 5
618 619 5
618 658 2
619 620 5
619 659 4
620 621 5
620 660 1
621 622 2
621 661 4
622 623 3
622 662 5
623 624 4
623 663 1
624 625 4
624 664 2
625 626 1
625 665 5
626 627 2
626 666 5
627 628 3
627 667 5
628 629 2
628 668 3
629 630 4
629 669 4
630 631 3
630 670 1
631 632 3
631 671 3
632 633 1
632 672 2
633 634 1
633 673 2
634 635 5
634 674 1
635 636 1
635 675 3
636 637 4
636 676 2
637 638 3
637 677 2
638 639 2
638 678 2
639 640 4
639 679 5
640 680 4
641 642 3
641 681 1
642 643 3
642 682 4
643 644 2
643 683 4
644 645 1
644 684 4
645 646 1
645 685 3
646 647 3
646 686 3
647 648 1
647 687 2
648 649 2
648 688 3
649 650 5
649 689 3
650 651 5
650 690 5
651 652 4
651 691 2
652 653 1
652 692 4
653 654 5
653 693 1
654 655 5
654 694 4
655 656 5
655 695 4
656 657 4
656 696 1
657 658 1
657 697 2
658 659 2
658 698 1
659 660 5
659 699 2
660 661 2
660 700 1
661 662 5
661 701 2
662 663 5
662 702 3
663 664 4
663 703 4
664 665 3
664 704 5
665 666 2
665 705 4
666 667 1
666 706 5
667 668 4
667 707 4
668 669 2
668 708 2
669 670 5
669 709 4
670 671 4
670 710 3
671 672 2
671 711 1
672 673 5
672 712 4
673 674 4
673 713 4
674 675 5
674 714 5
675 676 5
675 715 1
676 677 1
676 716 3
677 678 2
677 717 4
678 679 2
678 718 1
679 680 2
679 719 5
680 720 2
681 682 3
681 721 4
682 683 1
682 722 4
683 684 2
683 723 5
684 685 3
684 724 1
685 686 4
685 725 5
686 687 1
686 726 1
687 688 1
687 727 2
688 689 5
688 728 3
689 690 1
689 729 4
690 691 4
690 730 5
691 692 1
691 731 3
692 693 3
692 732 1
693 694 5
693 733 3
694 695 1
694 734 3
695 696 4
695 735 2
696 697 1
696 736 5
697 698 4
697 737 2
698 699 5
698 738 3
699 700 2
699 739 2
700 701 5
700 740 5
701 702 3
701 741 5
702 703 4
702 742 5
703 704 5
703 743 3
704 705 5
704 744 2
705 706 3
705 745 5
706 707 3
706 746 2
707 708 3
707 747 2
708 709 5
708 748 2
709 710 5
709 749 5
710 711 5
710 750 3
711 712 1
711 751 3
712 713 3
712 752 2
713 714 3
713 753 5
714 715 5
714 754 4
715 716 3
715 755 1
716 717 1
716 756 2
717 718 3
717 757 1
718 719 5
718 758 2
719 720 2
719 759 1
720 760 3
721 722 4
721 761 2
722 723 3
722 762 5
723 724 2
723 763 5
724 725 2
724 764 2
725 726 1
725 765 5
726 727 5
726 766 2
727 728 5
727 767 2
728 729 2
728 768 1
729 730 5
729 769 1
730 731 3
730 770 5
731 732 3
731 771 1
732 733 5
732 772 2
733 734 5
733 773 2
734 735 2
734 774 3
735 736 4
735 775 5
736 737 3
736 776 3
737 738 4
737 777 4
738 739 3
738 778 5
739 740 4
739 779 4
740 741 1
740 780 2
741 742 2
741 781 5
742 743 5
742 782 2
743 744 5
743 783 2
744 745 3
744 784 1
745 746 1
745 785 3
746 747 2
746 786 3
747 748 2
747 787 1
748 749 5
748 788 2
749 750 2
749 789 1
750 751 4
750 790 1
751 752 1
751 791 3
752 753 2
752 792 4
753 754 4
753 793 2
754 755 1
754 794 4
755 756 4
755 795 2
756 757 5
756 796 4
757 758 4
757 797 3
758 759 5
758 798 3
759 760 2
759 799 4
760 800 4
761 762 5
761 801 4
762 763 3
762 802 3
763 764 4
763 803 1
764 765 4
764 804 5
765 766 4
765 805 2
766 767 4
766 806 3
767 768 2
767 807 2
768 769 4
768 808 4
769 770 1
769 809 5
770 771 2
770 810 3
771 772 1
771 811 2
772 773 3
772 812 4
773 774 3
773 813 2
774 775 4
774 814 1
775 776 3
775 815 3
776 777 1
776 816 1
777 778 4
777 817 3
778 779 1
778 818 5
779 780 2
779 819 2
780 781 5
780 820 1
781 782 3
781 821 4
782 783 1
782 822 3
783 784 4
783 823 5
784 785 2
784 824 2
785 786 5
785 825 5
786 787 3
786 826 2
787 788 1
787 827 1
788 789 2
788 828 3
789 790 1
789 829 5
790 791 5
790 830 3
791 792 5
791 831 2
792 793 4
792 832 5
793 794 5
793 833 1
794 795 4
794 834 1
795 796 1
795 835 1
796 797 1
796 836 5
797 798 5
797 837 3
798 799 4
798 838 1
799 800 1
799 839 5
800 840 2
801 802 4
801 841 4
802 803 2
802 842 4
803 804 3
803 843 5
804 805 1
804 844 2
805 806 4
805 845 4
806 807 3
806 846 1
807 808 5
807 847 2
808 809 3
808 848 3
809 810 3
809 849 2
810 811 2
810 850 2
811 812 4
811 851 4
812 813 4
812 852 5
813 814 3
813 853 5
814 815 3
814 854 3
815 816 4
815 855 3
816 817 5
816 856 5
817 818 1
817 857 4
818 819 3
818 858 5
819 820 4
819 859 4
820 821 2
820 860 2
821 822 4
821 861 5
822 823 4
822 862 3
823 824 4
823 863 5
824 825 2
824 864 4
825 826 1
825 865 2
826 827 1
826 866 1
827 828 1
827 867 4
828 829 5
828 868 2
829 830 1
829 869 2
830 831 4
830 870 2
831 832 1
831 871 1
832 833 4
832 872 5
833 834 1
833 873 5
834 835 5
834 874 1
835 836 4
835 875 2
836 837 2
836 876 2
837 838 3
837 877 5
838 839 3
838 878 4
839 840 2
839 879 3
840 880 5
841 842 1
841 881 3
842 843 2
842 882 1
843 844 4
843 883 2
844 845 4
844 884 5
845 846 5
845 885 3
846 847 2
846 886 3
847 848 4
847 887 3
848 849 1
848 888 2
849 850 3
849 889 5
850 851 4
850 890 3
851 852 3
851 891 4
852 853 5
852 892 2
853 854 4
853 893 2
854 855 4
854 894 1
855 856 4
855 895 3
856 857 3
856 896 1
857 858 1
857 897 2
858 859 2
858 898 5
859 860 5
859 899 1
860 861 3
860 900 3
861 862 1
861 901 1
862 863 4
862 902 1
863 864 1
863 903 5
864 865 5
864 904 3
865 866 1
865 905 4
866 867 2
866 906 5
867 868 3
867 907 4
868 869 3
868 908 4
869 870 1
869 909 1
870 871 5
870 910 3
871 872 1
871 911 5
872 873 3
872 912 5
873 874 5
873 913 1
874 875 4
874 914 3
875 876 1
875 915 1
876 877 2
876 916 3
877 878 2
877 917 5
878 879 1
878 918 1
879 880 2
879 919 2
880 920 4
881 882 2
881 921 3
882 883 2
882 922 5
883 884 1
883 923 1
884 885 4
884 924 4
885 886 3
885 925 5
886 887 2
886 926 4
887 888 2
887 927 5
888 889 1
888 928 4
889 890 2
889 929 2
890 891 1
890 930 3
891 892 3
891 931 2
892 893 4
892 932 2
893 894 1
893 933 4
894 895 2
894 934 3
895 896 5
895 935 2
896 897 5
896 936 3
897 898 5
897 937 2
898 899 2
898 938 5
899 900 1
899 939 5
900 901 4
900 940 4
901 902 4
901 941 5
902 903 1
902 942 5
903 904 3
903 943 1
904 905 4
904 944 5
905 906 2
905 945 4
906 907 1
906 946 3
907 908 4
907 947 1
908 909 2
908 948 1
909 910 4
909 949 5
910 911 1
910 950 2
911 912 3
911 951 4
912 913 5
912 952 2
913 914 1
913 953 5
914 915 2
914 954 4
915 916 1
915 955 4
916 917 5
916 956 5
917 918 2
917 957 3
918 919 3
918 958 1
919 920 1
919 959 1
920 960 4
921 922 5
921 961 5
922 923 4
922 962 5
923 924 4
923 963 2
924 925 5
924 964 5
925 926 2
925 965 5
926 927 5
926 966 3
927 928 5
927 967 1
928 929 5
928 968 3
929 930 1
929 969 1
930 931 4
930 970 5
931 932 3
931 971 5
932 933 2
932 972 4
933 934 1
933 973 3
934 935 2
934 974 3
935 936 4
935 975 4
936 937 5
936 976 2
937 938 2
937 977 3
938 939 2
938 978 4
939 940 4
939 979 5
940 941 3
940 980 4
941 942 3
941 981 4
942 943 3
942 982 5
943 944 1
943 983 1
944 945 1
944 984 2
945 946 5
945 985 2
946 947 1
946 986 5
947 948 4
947 987 4
948 949 5
948 988 3
949 950 1
949 989 5
950 951 2
950 990 4
951 952 2
951 991 1
952 953 3
952 992 1
953 954 2
953 993 4
954 955 3
954 994 4
955 956 3
955 995 1
956 957 3
956 996 1
957 958 2
957 997 3
958 959 3
958 998 4
959 960 2
959 999 5
960 1000 1
961 962 3
961 1001 1
962 963 2
962 1002 4
963 964 1
963 1003 3
964 965 3
964 1004 4
965 966 5
965 1005 4
966 967 4
966 1006 4
967 968 3
967 1007 2
968 969 3
968 1008 2
969 970 2
969 1009 4
970 971 4
970 1010 4
971 972 5
971 1011 2
972 973 3
972 1012 5
973 974 5
973 1013 2
974 975 1
974 1014 5
975 976 4
975 1015 3
976 977 4
976 1016 4
977 978 1
977 1017 1
978 979 5
978 1018 1
979 980 5
979 1019 4
980 981 1
980 1020 3
981 982 2
981 1021 5
982 983 5
982 1022 2
983 984 2
983 1023 1
984 985 1
984 1024 1
985 986 2
985 1025 5
986 987 3
986 1026 3
987 988 1
987 1027 1
988 989 2
988 1028 5
989 990 4
989 1029 3
990 991 1
990 1030 3
991 992 2
991 1031 1
992 993 1
992 1032 1
993 994 5
993 1033 2
994 995 3
994 1034 2
995 996 2
995 1035 5
996 997 4
996 1036 3
997 998 2
997 1037 3
998 999 1
998 1038 4
999 1000 2
999 1039 3
1000 1040 3
1001 1002 1
1001 1041 1
1002 1003 3
1002 1042 4
1003 1004 5
1003 1043 4
1004 1005 5
1004 1044 1
1005 1006 2
1005 1045 5
1006 1007 1
1006 1046 2
1007 1008 2
1007 1047 4
1008 1009 3
1008 1048 2
1009 1010 4
1009 1049 5
1010 1011 4
1010 1050 5
1011 1012 4
1011 1051 5
1012 1013 2
1012 1052 1
1013 1014 1
1013 1053 5
1014 1015 5
1014 1054 4
1015 1016 3
1015 1055 3
1016 1017 3
1016 1056 3
1017 1018 2
1017 1057 1
1018 1019 2
1018 1058 2
1019 1020 5
1019 1059 4
1020 1021 1
1020 1060 1
1021 1022 4
1021 1061 2
1022 1023 4
1022 1062 3
1023 1024 3
1023 1063 2
1024 1025 5
1024 1064 5
1025 1026 2
1025 1065 1
1026 1027 4
1026 1066 3
1027 1028 4
1027 1067 1
1028 1029 4
1028 1068 2
1029 1030 1
1029 1069 4
1030 1031 2
1030 1070 1
1031 1032 1
1031 1071 4
1032 1033 2
1032 1072 3
1033 1034 3
1033 1073 2
1034 1035 2
1034 1074 1
1035 1036 2
1035 1075 3
1036 1037 2
1036 1076 4
1037 1038 2
1037 1077 1
1038 1039 3
1038 1078 2
1039 1040 1
1039 1079 3
1040 1080 5
1041 1042 5
1041 1081 3
1042 1043 1
1042 1082 3
1043 1044 5
1043 1083 2
1044 1045 1
1044 1084 3
1045 1046 5
1045 1085 4
1046 1047 3
1046 1086 4
1047 1048 2
1047 1087 5
1048 1049 1
1048 1088 2
1049 1050 3
1049 1089 1
1050 1051 5
1050 1090 5
1051 1052 5
1051 1091 3
1052 1053 5
1052 1092 4
1053 1054 2
1053 1093 3
1054 1055 3
1054 1094 2
1055 1056 3
1055 1095 5
1056 1057 5
1056 1096 2
1057 1058 5
1057 1097 3
1058 1059 5
1058 1098 4
1059 1060 3
1059 1099 5
1060 1061 4
1060 1100 2
1061 1062 1
1061 1101 3
1062 1063 1
1062 1102 5
1063 1064 5
1063 1103 4
1064 1065 4
1064 1104 4
1065 1066 1
1065 1105 2
1066 1067 3
1066 1106 4
1067 1068 4
1067 1107 4
1068 1069 4
1068 1108 1
1069 1070 5
1069 1109 2
1070 1071 1
1070 1110 2
1071 1072 3
1071 1111 4
1072 1073 1
1072 1112 1
1073 1074 4
1073 1113 3
1074 1075 4
1074 1114 3
1075 1076 4
1075 1115 5
1076 1077 2
1076 1116 4
1077 1078 4
1077 1117 3
1078 1079 2
1078 1118 1
1079 1080 3
1079 1119 1
1080 1120 3
1081 1082 5
1081 1121 4
1082 1083 1
1082 1122 1
1083 1084 4
1083 1123 3
1084 1085 2
1084 1124 1
1085 1086 4
1085 1125 5
1086 1087 5
1086 1126 5
1087 1088 5
1087 1127 4
1088 1089 1
1088 1128 4
1089 1090 5
1089 1129 5
1090 1091 5
1090 1130 3
1091 1092 4
1091 1131 3
1092 1093 1
1092 1132 2
1093 1094 1
1093 1133 1
1094 1095 4
1094 1134 2
1095 1096 4
1095 1135 1
1096 1097 3
1096 1136 5
1097 1098 1
1097 1137 2
1098 1099 1
1098 1138 5
1099 1100 4
1099 1139 4
1100 1101 3
1100 1140 4
1101 1102 1
1101 1141 2
1102 1103 3
1102 1142 1
1103 1104 3
1103 1143 2
1104 1105 1
1104 1144 5
1105 1106 4
1105 1145 1
1106 1107 2
1106 1146 5
1107 1108 1
1107 1147 4
1108 1109 4
1108 1148 2
1109 1110 2
1109 1149 5
1110 1111 4
1110 1150 5
1111 1112 1
1111 1151 4
1112 1113 5
1112 1152 5
1113 1114 2
1113 1153 1
1114 1115 1
1114 1154 2
1115 1116 3
1115 1155 5
1116 1117 5
1116 1156 1
1117 1118 5
1117 1157 3
1118 1119 1
1118 1158 1
1119 1120 3
1119 1159 3
1120 1160 4
1121 1122 2
1121 1161 1
1122 1123 5
1122 1162 1
1123 1124 2
1123 1163 2
1124 1125 2
1124 1164 1
1125 1126 5
1125 1165 1
1126 1127 5
1126 1166 3
1127 1128 3
1127 1167 4
1128 1129 5
1128 1168 5
1129 1130 1
1129 1169 2
1130 1131 1
1130 1170 4
1131 1132 4
1131 1171 4
1132 1133 2
1132 1172 2
1133 1134 5
1133 1173 1
1134 1135 5
1134 1174 5
1135 1136 2
1135 1175 4
1136 1137 5
1136 1176 2
1137 1138 1
1137 1177 2
1138 1139 1
1138 1178 1
1139 1140 2
1139 1179 3
1140 1141 4
1140 1180 2
1141 1142 1
1141 1181 1
1142 1143 5
1142 1182 4
1143 1144 3
1143 1183 3
1144 1145 2
1144 1184 4
1145 1146 1
1145 1185 5
1146 1147 2
1146 1186 4
1147 1148 2
1147 1187 4
1148 1149 4
1148 1188 5
1149 1150 2
1149 1189 2
1150 1151 5
1150 1190 3
1151 1152 2
1151 1191 5
1152 1153 5
1152 1192 4
1153 1154 5
1153 1193 4
1154 1155 5
1154 1194 1
1155 1156 3
1155 1195 5
1156 1157 1
1156 1196 3
1157 1158 4
1157 1197 5
1158 1159 4
1158 1198 2
1159 1160 3
1159 1199 4
1160 1200 4
1161 1162 2
1161 1201 4
1162 1163 4
1162 1202 3
1163 1164 1
1163 1203 4
1164 1165 4
1164 1204 4
1165 1166 3
1165 1205 1
1166 1167 2
1166 1206 5
1167 1168 5
1167 1207 1
1168 1169 1
1168 1208 5
1169 1170 3
1169 1209 3
1170 1171 3
1170 1210 5
1171 1172 3
1171 1211 2
1172 1173 2
1172 1212 3
1173 1174 2
1173 1213 1
1174 1175 4
1174 1214 5
1175 1176 5
1175 1215 5
1176 1177 1
1176 1216 3
1177 1178 2
1177 1217 2
1178 1179 2
1178 1218 5
1179 1180 3
1179 1219 4
1180 1181 2
1180 1220 1
1181 1182 5
1181 1221 2
1182 1183 4
1182 1222 4
1183 1184 4
1183 1223 4
1184 1185 5
1184 1224 4
1185 1186 3
1185 1225 5
1186 1187 2
1186 1226 4
1187 1188 5
1187 1227 3
1188 1189 5
1188 1228 2
1189 1190 1
1189 1229 3
1190 1191 3
1190 1230 4
1191 1192 5
1191 1231 2
1192 1193 5
1192 1232 3
1193 1194 4
1193 1233 2
1194 1195 3
1194 1234 1
1195 1196 3
1195 1235 1
1196 1197 4
1196 1236 5
1197 1198 1
1197 1237 3
1198 1199 2
1198 1238 3
1199 1200 2
1199 1239 4
1200 1240 5
1201 1202 3
1201 1241 5
1202 1203 1
1202 1242 4
1203 1204 1
1203 1243 3
1204 1205 5
1204 1244 3
1205 1206 3
1205 1245 5
1206 1207 1
1206 1246 1
1207 1208 2
1207 1247 4
1208 1209 5
1208 1248 2
1209 1210 4
1209 1249 2
1210 1211 1
1210 1250 5
1211 1212 2
1211 1251 2
1212 1213 4
1212 1252 2
1213 1214 1
1213 1253 2
1214 1215 1
1214 1254 5
1215 1216 4
1215 1255 3
1216 1217 5
1216 1256 3
1217 1218 3
1217 1257 1
1218 1219 4
1218 1258 4
1219 1220 3
1219 1259 3
1220 1221 3
1220 1260 5
1221 1222 5
1221 1261 5
1222 1223 4
1222 1262 4
1223 1224 2
1223 1263 2
1224 1225 1
1224 1264 5
1225 1226 4
1225 1265 3
1226 1227 4
1226 1266 5
1227 1228 4
1227 1267 5
1228 1229 2
1228 1268 5
1229 1230 5
1229 1269 1
1230 1231 5
1230 1270 3
1231 1232 1
1231 1271 3
1232 1233 5
1232 1272 2
1233 1234 1
1233 1273 3
1234 1235 5
1234 1274 2
1235 1236 4
1235 1275 1
1236 1237 4
1236 1276 5
1237 1238 4
1237 1277 3
1238 1239 1
1238 1278 3
1239 1240 2
1239 1279 2
1240 1280 2
1241 1242 3
1241 1281 4
1242 1243 5
1242 1282 1
1243 1244 5
1243 1283 4
1244 1245 2
1244 1284 4
1245 1246 4
1245 1285 4
1246 1247 5
1246 1286 4
1247 1248 3
1247 1287 1
1248 1249 4
1248 1288 4
1249 1250 3
1249 1289 5
1250 1251 3
1250 1290 1
1251 1252 1
1251 1291 3
1252 1253 4
1252 1292 2
1253 1254 1
1253 1293 3
1254 1255 3
1254 1294 1
1255 1256 5
1255 1295 2
1256 1257 2
1256 1296 4
1257 1258 1
1257 1297 2
1258 1259 1
1258 1298 1
1259 1260 5
1259 1299 1
1260 1261 4
1260 1300 1
1261 1262 3
1261 1301 4
1262 1263 3
1262 1302 2
1263 1264 2
1263 1303 5
1264 1265 1
1264 1304 2
1265 1266 5
1265 1305 3
1266 1267 3
1266 1306 1
1267 1268 1
1267 1307 2
1268 1269 2
1268 1308 3
1269 1270 1
1269 1309 1
1270 1271 3
1270 1310 3
1271 1272 3
1271 1311 1
1272 1273 4
1272 1312 5
1273 1274 2
1273 1313 3
1274 1275 3
1274 1314 5
1275 1276 5
1275 1315 1
1276 1277 4
1276 1316 4
1277 1278 1
1277 1317 2
1278 1279 3
1278 1318 2
1279 1280 2
1279 1319 2
1280 1320 4
1281 1282 1
1281 1321 3
1282 1283 3
1282 1322 5
1283 1284 1
1283 1323 3
1284 1285 5
1284 1324 5
1285 1286 3
1285 1325 1
1286 1287 5
1286 1326 4
1287 1288 2
1287 1327 5
1288 1289 3
1288 1328 2
1289 1290 3
1289 1329 3
1290 1291 2
1290 1330 1
1291 1292 3
1291 1331 5
1292 1293 3
1292 1332 3
1293 1294 2
1293 1333 2
1294 1295 2
1294 1334 5
1295 1296 4
1295 1335 3
1296 1297 2
1296 1336 3
1297 1298 4
1297 1337 3
1298 1299 3
1298 1338 1
1299 1300 5
1299 1339 4
1300 1301 5
1300 1340 1
1301 1302 5
1301 1341 2
1302 1303 4
1302 1342 1
1303 1304 4
1303 1343 2
1304 1305 3
1304 1344 2
1305 1306 5
1305 1345 4
1306 1307 1
1306 1346 4
1307 1308 3
1307 1347 5
1308 1309 2
1308 1348 2
1309 1310 1
1309 1349 3
1310 1311 1
1310 1350 3
1311 1312 4
1311 1351 5
1312 1313 3
1312 1352 5
1313 1314 3
1313 1353 5
1314 1315 4
1314 1354 3
1315 1316 5
1315 1355 5
1316 1317 4
1316 1356 4
1317 1318 5
1317 1357 1
1318 1319 1
1318 1358 4
1319 1320 5
1319 1359 2
1320 1360 1
1321 1322 1
1321 1361 3
1322 1323 4
1322 1362 3
1323 1324 1
1323 1363 5
1324 1325 2
1324 1364 4
1325 1326 5
1325 1365 2
1326 1327 4
1326 1366 5
1327 1328 4
1327 1367 4
1328 1329 2
1328 1368 4
1329 1330 1
1329 1369 3
1330 1331 3
1330 1370 3
1331 1332 1
1331 1371 5
1332 1333 4
1332 1372 5
1333 1334 1
1333 1373 5
1334 1335 4
1334 1374 5
1335 1336 5
1335 1375 1
1336 1337 3
1336 1376 2
1337 1338 1
1337 1377 1
1338 1339 4
1338 1378 5
1339 1340 5
1339 1379 5
1340 1341 1
1340 1380 3
1341 1342 2
1341 1381 3
1342 1343 4
1342 1382 5
1343 1344 1
1343 1383 2
1344 1345 1
1344 1384 3
1345 1346 3
1345 1385 4
1346 1347 3
1346 1386 3
1347 1348 5
1347 1387 4
1348 1349 2
1348 1388 3
1349 1350 2
1349 1389 1
1350 1351 4
1350 1390 3
1351 1352 5
1351 1391 2
1352 1353 2
1352 1392 2
1353 1354 3
1353 1393 1
1354 1355 5
1354 1394 1
1355 1356 3
1355 1395 4
1356 1357 3
1356 1396 4
1357 1358 3
1357 1397 2
1358 1359 4
1358 1398 4
1359 1360 4
1359 1399 4
1360 1400 4
1361 1362 1
1361 1401 3
1362 1363 4
1362 1402 1
1363 1364 5
1363 1403 1
1364 1365 1
1364 1404 1
1365 1366 5
1365 1405 2
1366 1367 5
1366 1406 4
1367 1368 2
1367 1407 5
1368 1369 5
1368 1408 3
1369 1370 1
1369 1409 4
1370 1371 5
1370 1410 1
1371 1372 3
1371 1411 4
1372 1373 5
1372 1412 4
1373 1374 3
1373 1413 4
1374 1375 2
1374 1414 2
1375 1376 4
1375 1415 4
1376 1377 2
1376 1416 4
1377 1378 4
1377 1417 4
1378 1379 4
1378 1418 1
1379 1380 2
1379 1419 1
1380 1381 1
1380 1420 2
1381 1382 4
1381 1421 5
1382 1383 4
1382 1422 2
1383 1384 3
1383 1423 1
1384 1385 4
1384 1424 3
1385 1386 5
1385 1425 5
1386 1387 2
1386 1426 3
1387 1388 3
1387 1427 4
1388 1389 4
1388 1428 4
1389 1390 5
1389 1429 1
1390 1391 3
1390 1430 2
1391 1392 4
1391 1431 2
1392 1393 1
1392 1432 1
1393 1394 5
1393 1433 2
1394 1395 2
1394 1434 3
1395 1396 5
1395 1435 5
1396 1397 4
1396 1436 3
1397 1398 3
1397 1437 5
1398 1399 2
1398 1438 3
1399 1400 1
1399 1439 5
1400 1440 4
1401 1402 4
1401 1441 4
1402 1403 2
1402 1442 4
1403 1404 5
1403 1443 1
1404 1405 1
1404 1444 5
1405 1406 1
1405 1445 1
1406 1407 3
1406 1446 5
1407 1408 3
1407 1447 3
1408 1409 4
1408 1448 3
1409 1410 4
1409 1449 5
1410 1411 4
1410 1450 5
1411 1412 4
1411 1451 4
1412 1413 4
1412 1452 4
1413 1414 2
1413 1453 3
1414 1415 4
1414 1454 1
1415 1416 5
1415 1455 3
1416 1417 1
1416 1456 3
1417 1418 3
1417 1457 1
1418 1419 2
1418 1458 1
1419 1420 5
1419 1459 5
1420 1421 3
1420 1460 4
1421 1422 1
1421 1461 2
1422 1423 1
1422 1462 5
1423 1424 5
1423 1463 4
1424 1425 3
1424 1464 4
1425 1426 4
1425 1465 4
1426 1427 3
1426 1466 1
1427 1428 1
1427 1467 2
1428 1429 3
1428 1468 1
1429 1430 5
1429 1469 3
1430 1431 5
1430 1470 3
1431 1432 3
1431 1471 1
1432 1433 4
1432 1472 5
1433 1434 3
1433 1473 2
1434 1435 4
1434 1474 5
1435 1436 1
1435 1475 5
1436 1437 4
1436 1476 1
1437 1438 3
1437 1477 4
1438 1439 3
1438 1478 3
1439 1440 4
1439 1479 3
1440 1480 2
1441 1442 5
1441 1481 2
1442 1443 3
1442 1482 1
1443 1444 5
1443 1483 4
1444 1445 5
1444 1484 5
1445 1446 5
1445 1485 1
1446 1447 5
1446 1486 3
1447 1448 4
1447 1487 3
1448 1449 1
1448 1488 3
1449 1450 4
1449 1489 3
1450 1451 3
1450 1490 1
1451 1452 3
1451 1491 2
1452 1453 2
1452 1492 5
1453 1454 1
1453 1493 3
1454 1455 1
1454 1494 4
1455 1456 4
1455 1495 1
1456 1457 4
1456 1496 3
1457 1458 5
1457 1497 3
1458 1459 5
1458 1498 1
1459 1460 5
1459 1499 1
1460 1461 4
1460 1500 5
1461 1462 4
1461 1501 2
1462 1463 5
1462 1502 5
1463 1464 5
1463 1503 3
1464 1465 4
1464 1504 3
1465 1466 5
1465 1505 3
1466 1467 4
1466 1506 3
1467 1468 3
1467 1507 5
1468 1469 3
1468 1508 4
1469 1470 1
1469 1509 2
1470 1471 4
1470 1510 3
1471 1472 1
1471 1511 5
1472 1473 1
1472 1512 2
1473 1474 5
1473 1513 4
1474 1475 2
1474 1514 4
1475 1476 1
1475 1515 1
1476 1477 4
1476 1516 2
1477 1478 1
1477 1517 3
1478 1479 2
1478 1518 4
1479 1480 4
1479 1519 4
1480 1520 1
1481 1482 1
1481 1521 4
1482 1483 4
1482 1522 3
1483 1484 5
1483 1523 4
1484 1485 5
1484 1524 1
1485 1486 5
1485 1525 2
1486 1487 3
1486 1526 2
1487 1488 1
1487 1527 4
1488 1489 4
1488 1528 4
1489 1490 1
1489 1529 1
1490 1491 2
1490 1530 1
1491 1492 3
1491 1531 5
1492 1493 1
1492 1532 2
1493 1494 3
1493 1533 5
1494 1495 3
1494 1534 5
1495 1496 5
1495 1535 2
1496 1497 5
1496 1536 3
1497 1498 2
1497 1537 3
1498 1499 2
1498 1538 4
1499 1500 3
1499 1539 3
1500 1501 1
1500 1540 2
1501 1502 5
1501 1541 5
1502 1503 3
1502 1542 3
1503 1504 2
1503 1543 4
1504 1505 2
1504 1544 5
1505 1506 5
1505 1545 3
1506 1507 5
1506 1546 5
1507 1508 3
1507 1547 5
1508 1509 5
1508 1548 4
1509 1510 4
1509 1549 4
1510 1511 2
1510 1550 2
1511 1512 1
1511 1551 2
1512 1513 4
1512 1552 1
1513 1514 5
1513 1553 2
1514 1515 3
1514 1554 3
1515 1516 3
1515 1555 4
1516 1517 1
1516 1556 4
1517 1518 1
1517 1557 5
1518 1519 5
1518 1558 5
1519 1520 1
1519 1559 4
1520 1560 3
1521 1522 1
1521 1561 1
1522 1523 4
1522 1562 1
1523 1524 4
1523 1563 4
1524 1525 5
1524 1564 4
1525 1526 4
1525 1565 1
1526 1527 4
1526 1566 4
1527 1528 4
1527 1567 5
1528 1529 1
1528 1568 3
1529 1530 5
1529 1569 4
1530 1531 4
1530 1570 5
1531 1532 3
1531 1571 5
1532 1533 1
1532 1572 3
1533 1534 1
1533 1573 4
1534 1535 5
1534 1574 4
1535 1536 4
1535 1575 3
1536 1537 1
1536 1576 4
1537 1538 4
1537 1577 5
1538 1539 2
1538 1578 1
1539 1540 3
1539 1579 4
1540 1541 1
1540 1580 1
1541 1542 5
1541 1581 2
1542 1543 1
1542 1582 3
1543 1544 3
1543 1583 5
1544 1545 5
1544 1584 3
1545 1546 3
1545 1585 3
1546 1547 3
1546 1586 1
1547 1548 5
1547 1587 5
1548 1549 2
1548 1588 4
1549 1550 1
1549 1589 3
1550 1551 1
1550 1590 4
1551 1552 5
1551 1591 3
1552 1553 1
1552 1592 3
1553 1554 3
1553 1593 4
1554 1555 2
1554 1594 4
1555 1556 1
1555 1595 5
1556 1557 3
1556 1596 4
1557 1558 5
1557 1597 1
1558 1559 5
1558 1598 2
1559 1560 3
1559 1599 1
1560 1600 3
1561 1562 1
1562 1563 4
1563 1564 5
1564 1565 4
1565 1566 2
1566 1567 5
1567 1568 4
1568 1569 5
1569 1570 5
1570 1571 4
1571 1572 3
1572 1573 1
1573 1574 2
1574 1575 4
1575 1576 3
1576 1577 5
1577 1578 2
1578 1579 1
1579 1580 2
1580 1581 1
1581 1582 5
1582 1583 5
1583 1584 5
1584 1585 5
1585 1586 3
1586 1587 4
1587 1588 3
1588 1589 1
1589 1590 3
1590 1591 3
1591 1592 5
1592 1593 1
1593 1594 3
1594 1595 3
1595 1596 1
1596 1597 4
1597 1598 1
1598 1599 2
1599 1600 4
1 1561 4
2 1562 3
3 1563 4
4 1564 1
5 1565 5
6 1566 1
7 1567 1
8 1568 1
9 1569 2
10 1570 2
11 1571 2
12 1572 1
13 1573 2
14 1574 2
15 1575 5
16 1576 3
17 1577 1
18 1578 3
19 1579 5
20 1580 5
21 1581 1
22 1582 1
23 1583 3
24 1584 3
25 1585 3
26 1586 3
27 1587 5
28 1588 3
29 1589 5
30 1590 1
31 1591 1
32 1592 2
33 1593 2
34 1594 2
35 1595 3
36 1596 3
37 1597 2
38 1598 4
39 1599 3
40 1600 5
1 40 1
41 80 1
81 120 5
121 160 3
161 200 2
201 240 2
241 280 3
281 320 1
321 360 1
361 400 5
401 440 4
441 480 1
481 520 1
521 560 3
561 600 3
601 640 2
641 680 5
681 720 3
721 760 3
761 800 2
801 840 2
841 880 3
881 920 5
921 960 4
961 1000 4
1001 1040 5
1041 1080 2
1081 1120 2
1121 1160 1
1161 1200 1
1201 1240 2
1241 1280 3
1281 1320 1
1321 1360 1
1361 1400 3
1401 1440 3
1441 1480 1
1481 1520 1
1521 1560 5
1561 1600 4
